============================[ Problem Statistics ]=============================|                                                                             ||  Number of variables:          4242                                         ||  Number of clauses:           10001                                         ||  Parse time:                   0.40 s                                       ||                                                                             |============================[ Search Statistics ]==============================| Conflicts |          ORIGINAL         |          LEARNT          | Progress ||           |    Vars  Clauses Literals |    Limit  Clauses Lit/Cl |          |===============================================================================|       100 |    1591     6206   621147 |     2275      100     53 | 62.501 % |===============================================================================restarts              : 3conflicts             : 224            (372 /sec)decisions             : 489            (0.00 % random) (812 /sec)propagations          : 11699          (19434 /sec)conflict literals     : 16395          (95.02 % deleted)CPU time              : 0.602 sSATISFIABLE